22 28
7 12
5 22
10 11
42 41
36 28
20 43
23 19
27 35
38 22
24 22
8 29
17 35
36 39
24 3
33 39
29 37
5 9
22 47
28 14
5 10
26 4
31 29
10 40
40 38
11 46
30 1
42 44
46 44
9 24
4 40
25 1
3 46
19 47
8 15
32 7
3 7
26 15
16 19
47 39
43 49
8 12
1 10
40 14
26 18
23 24
18 25
9 1
43 24
14 17
